SAT
-149 67 -42 -28 85 -163 55 64 116 137 87 -57 136 173 30 36 -148 72 -111 54 -145 -39 94 33 -144 -19 -5 7 -95 147 43 119 65 -113 -141 -14 -170 -48 112 143 -78 41 -4 152 40 66 45 -103 120 -63 -140 -139 69 165 -129 -8 60 132 -91 100 -52 6 -27 -10 -9 -22 138 -155 49 -128 26 51 -16 -50 -75 -159 93 15 -146 108 -35 -58 -127 -11 25 -21 -68 -134 -114 109 74 -80 88 -156 150 -71 164 -46 133 -89 -174 123 -59 24 -37 104 -102 1 -56 86 98 76 -121 97 -79 -73 96 34 -105 131 -82 -135 151 77 -90 17 -162 83 62 -101 157 -20 -171 110 175 -125 -61 -117 -167 -29 153 -13 23 -53 107 -12 81 47 3 38 -18 166 115 -32 -154 -99 -124 172 161 160 -118 -70 -106 -168 -44 -31 -84 130 -122 -158 2 126 -169 -92 142 0
